results_rootrelaxation/bin012_050_018.srr.sol
solution status: optimal solution found
objective value:                                    0
_var47_                            0.0971315397381078 	(obj:0)
_var95_                             0.116737126452098 	(obj:0)
_var121_                            0.175796155197266 	(obj:0)
_var144_                            0.459959056606059 	(obj:0)
_var674_                           0.0294053517134444 	(obj:0)
_var680_                            0.198321078579822 	(obj:0)
_var690_                            0.410869380882585 	(obj:0)
_var691_                           0.0320400227732487 	(obj:0)
_var692_                            0.112206703572251 	(obj:0)
_var693_                            0.109808244400566 	(obj:0)
_var697_                            0.206225091759234 	(obj:0)
_var698_                           0.0558186861773647 	(obj:0)
_var699_                            0.223244461134059 	(obj:0)
_var700_                           0.0347534311290925 	(obj:0)
_var702_                           0.0485142877908743 	(obj:0)
_var703_                            0.104641866437319 	(obj:0)
_var706_                           0.0832253219144055 	(obj:0)
_var707_                            0.100947270238515 	(obj:0)
_var708_                            0.439093673155427 	(obj:0)
_var710_                          0.00978765156929423 	(obj:0)
_var711_                            0.569446295107386 	(obj:0)
_var714_                             0.09839133647475 	(obj:0)
_var715_                            0.134889101546884 	(obj:0)
_var717_                            0.512713044952938 	(obj:0)
_var720_                            0.205449832228993 	(obj:0)
_var721_                           0.0585623781086093 	(obj:0)
_var723_                            0.306154833864306 	(obj:0)
_var735_                           0.0532264121231217 	(obj:0)
_var740_                            0.255544922655748 	(obj:0)
_var741_                             0.27005681198745 	(obj:0)
_var742_                            0.184493598052161 	(obj:0)
_var743_                            0.377327292769493 	(obj:0)
_var745_                            0.233886109529635 	(obj:0)
_var746_                            0.204644289123351 	(obj:0)
_var748_                            0.306154833864306 	(obj:0)
_var749_                            0.185341538163361 	(obj:0)
_var751_                            0.178000799486392 	(obj:0)
_var752_                           0.0223553353603133 	(obj:0)
_var753_                          0.000502707351639931 	(obj:0)
_var755_                            0.218598960667692 	(obj:0)
_var757_                            0.196037696994657 	(obj:0)
_var759_                            0.241257131782008 	(obj:0)
_var760_                            0.103176141387957 	(obj:0)
_var761_                            0.313404721815077 	(obj:0)
_var763_                           0.0622690877375751 	(obj:0)
_var764_                            0.362585248264751 	(obj:0)
_var767_                            0.049089675723474 	(obj:0)
_var768_                            0.267216212614925 	(obj:0)
_var769_                            0.364075200174433 	(obj:0)
_var773_                            0.215485809116567 	(obj:0)
_var775_                            0.140903419621334 	(obj:0)
_var776_                            0.021810231003115 	(obj:0)
_var777_                             0.17720131309583 	(obj:0)
_var780_                            0.294774266228967 	(obj:0)
_var782_                            0.154391724104515 	(obj:0)
_var783_                            0.056291109953606 	(obj:0)
_var784_                           0.0532990927040812 	(obj:0)
_var786_                          0.00471212433224738 	(obj:0)
_var787_                             0.30926798541543 	(obj:0)
_var791_                            0.025910627112279 	(obj:0)
_var792_                           0.0320945332089698 	(obj:0)
_var794_                           0.0343658013639732 	(obj:0)
_var795_                           0.0505796276331559 	(obj:0)
_var797_                           0.0455343839715101 	(obj:0)
