results_rootrelaxation/bin012_050_018.srr.log
SCIP version 8.0.3.5 [precision: 8 byte] [memory: block] [mode: optimized] [LP solver: Soplex 6.0.1.3] [GitHash: 438792519e]
Copyright (c) 2002-2023 Zuse Institute Berlin (ZIB)

External libraries: 
  Readline 8.1         GNU library for command line editing (gnu.org/s/readline)
  Soplex 6.0.1.3       Linear Programming Solver developed at Zuse Institute Berlin (soplex.zib.de) [GitHash: 713be0fe]
  CppAD 20180000.0     Algorithmic Differentiation of C++ algorithms developed by B. Bell (github.com/coin-or/CppAD)
  ZLIB 1.2.11          General purpose compression library by J. Gailly and M. Adler (zlib.net)
  bliss 0.77           Computing Graph Automorphism Groups by T. Junttila and P. Kaski (www.tcs.hut.fi/Software/bliss/)

user parameter file <scip.set> not found - using default parameters

srr/relaxation = TRUE

read problem <instances/bin012_050_018.srr>
============

Original problem: 
original problem has 0 variables (0 bin, 0 int, 0 impl, 0 cont) and 77 constraints

presolving:
presolving (1 rounds: 1 fast, 1 medium, 1 exhaustive):
 0 deleted vars, 0 deleted constraints, 0 added constraints, 0 tightened bounds, 0 added holes, 0 changed sides, 0 changed coefficients
 0 implications, 0 cliques
presolved problem has 0 variables (0 bin, 0 int, 0 impl, 0 cont) and 77 constraints
     77 constraints of type <linear>
Presolving Time: 0.00

 time | node  | left  |LP iter|LP it/n|mem/heur|mdpt |vars |cons |rows |cuts |sepa|confs|strbr|  dualbound   | primalbound  |  gap   | compl. 
  0.0s|     1 |     0 |     1 |     - |   710k |   0 |   1 |  77 |  77 |   0 |  0 |   0 |   0 |      --      |      --      |    Inf | unknown
r 0.0s|     1 |     0 |   836 |     - |simplero|   0 | 668 |  77 |  77 |   0 |  0 |   0 |   0 |      --      | 1.512875e+01 |    Inf | unknown
r 0.0s|     1 |     0 |   890 |     - |simplero|   0 | 679 |  77 |  77 |   0 |  0 |   0 |   0 |      --      | 1.290497e+01 |    Inf | unknown
r 0.0s|     1 |     0 |   936 |     - |simplero|   0 | 690 |  77 |  77 |   0 |  0 |   0 |   0 |      --      | 1.084693e+01 |    Inf | unknown
r 0.0s|     1 |     0 |  1004 |     - |simplero|   0 | 701 |  77 |  77 |   0 |  0 |   0 |   0 |      --      | 8.950911e+00 |    Inf | unknown
r 0.0s|     1 |     0 |  1061 |     - |simplero|   0 | 712 |  77 |  77 |   0 |  0 |   0 |   0 |      --      | 6.795234e+00 |    Inf | unknown
r 0.1s|     1 |     0 |  1107 |     - |simplero|   0 | 723 |  77 |  77 |   0 |  0 |   0 |   0 |      --      | 5.192331e+00 |    Inf | unknown
r 0.1s|     1 |     0 |  1132 |     - |simplero|   0 | 734 |  77 |  77 |   0 |  0 |   0 |   0 |      --      | 4.339447e+00 |    Inf | unknown
r 0.1s|     1 |     0 |  1144 |     - |simplero|   0 | 734 |  77 |  77 |   0 |  0 |   0 |   0 |      --      | 4.240883e+00 |    Inf | unknown
r 0.1s|     1 |     0 |  1198 |     - |simplero|   0 | 745 |  77 |  77 |   0 |  0 |   0 |   0 |      --      | 3.281359e+00 |    Inf | unknown
r 0.1s|     1 |     0 |  1210 |     - |simplero|   0 | 745 |  77 |  77 |   0 |  0 |   0 |   0 |      --      | 3.110213e+00 |    Inf | unknown
r 0.1s|     1 |     0 |  1252 |     - |simplero|   0 | 756 |  77 |  77 |   0 |  0 |   0 |   0 |      --      | 1.772518e+00 |    Inf | unknown
r 0.1s|     1 |     0 |  1255 |     - |simplero|   0 | 756 |  77 |  77 |   0 |  0 |   0 |   0 |      --      | 1.771297e+00 |    Inf | unknown
r 0.1s|     1 |     0 |  1285 |     - |simplero|   0 | 767 |  77 |  77 |   0 |  0 |   0 |   0 |      --      | 1.169545e+00 |    Inf | unknown
r 0.1s|     1 |     0 |  1302 |     - |simplero|   0 | 767 |  77 |  77 |   0 |  0 |   0 |   0 |      --      | 1.005544e+00 |    Inf | unknown
 time | node  | left  |LP iter|LP it/n|mem/heur|mdpt |vars |cons |rows |cuts |sepa|confs|strbr|  dualbound   | primalbound  |  gap   | compl. 
r 0.1s|     1 |     0 |  1310 |     - |simplero|   0 | 767 |  77 |  77 |   0 |  0 |   0 |   0 |      --      | 9.676350e-01 |    Inf | unknown
r 0.1s|     1 |     0 |  1339 |     - |simplero|   0 | 778 |  77 |  77 |   0 |  0 |   0 |   0 |      --      | 4.765923e-01 |    Inf | unknown
r 0.1s|     1 |     0 |  1381 |     - |simplero|   0 | 789 |  77 |  77 |   0 |  0 |   0 |   0 |      --      | 1.380096e-01 |    Inf | unknown
r 0.1s|     1 |     0 |  1387 |     - |simplero|   0 | 789 |  77 |  77 |   0 |  0 |   0 |   0 |      --      | 1.265203e-01 |    Inf | unknown
r 0.1s|     1 |     0 |  1407 |     - |simplero|   0 | 800 |  77 |  77 |   0 |  0 |   0 |   0 |      --      | 0.000000e+00 |    Inf | unknown
  0.1s|     1 |     0 |  1407 |     - |  3633k |   0 | 800 |  77 |  77 |   0 |  0 |   0 |   0 | 0.000000e+00 | 0.000000e+00 |   0.00%| unknown
  0.1s|     1 |     0 |  1407 |     - |  3633k |   0 | 800 |  77 |  77 |   0 |  0 |   0 |   0 | 0.000000e+00 | 0.000000e+00 |   0.00%| unknown

SCIP Status        : problem is solved [optimal solution found]
Solving Time (sec) : 0.07
Solving Nodes      : 1
Primal Bound       : +0.00000000000000e+00 (19 solutions)
Dual Bound         : +0.00000000000000e+00
Gap                : 0.00 %

written transformed problem to file <results_rootrelaxation/bin012_050_018.srr.lp>
written transformed problem to file <results_rootrelaxation/bin012_050_018.srr.cip>


SCIP version 8.0.3.5 [precision: 8 byte] [memory: block] [mode: optimized] [LP solver: Soplex 6.0.1.3] [GitHash: 438792519e]
Copyright (c) 2002-2023 Zuse Institute Berlin (ZIB)

External libraries: 
  Readline 8.1         GNU library for command line editing (gnu.org/s/readline)
  Soplex 6.0.1.3       Linear Programming Solver developed at Zuse Institute Berlin (soplex.zib.de) [GitHash: 713be0fe]
  CppAD 20180000.0     Algorithmic Differentiation of C++ algorithms developed by B. Bell (github.com/coin-or/CppAD)
  ZLIB 1.2.11          General purpose compression library by J. Gailly and M. Adler (zlib.net)
  bliss 0.77           Computing Graph Automorphism Groups by T. Junttila and P. Kaski (www.tcs.hut.fi/Software/bliss/)

user parameter file <scip.set> not found - using default parameters

srr/relaxation = TRUE

read problem <instances/bin012_050_018.srr>
============

Original problem: 
original problem has 0 variables (0 bin, 0 int, 0 impl, 0 cont) and 77 constraints

presolving:
presolving (1 rounds: 1 fast, 1 medium, 1 exhaustive):
 0 deleted vars, 0 deleted constraints, 0 added constraints, 0 tightened bounds, 0 added holes, 0 changed sides, 0 changed coefficients
 0 implications, 0 cliques
presolved problem has 0 variables (0 bin, 0 int, 0 impl, 0 cont) and 77 constraints
     77 constraints of type <linear>
Presolving Time: 0.00

 time | node  | left  |LP iter|LP it/n|mem/heur|mdpt |vars |cons |rows |cuts |sepa|confs|strbr|  dualbound   | primalbound  |  gap   | compl. 
  0.0s|     1 |     0 |     1 |     - |   710k |   0 |   1 |  77 |  77 |   0 |  0 |   0 |   0 |      --      |      --      |    Inf | unknown
r 0.0s|     1 |     0 |   836 |     - |simplero|   0 | 668 |  77 |  77 |   0 |  0 |   0 |   0 |      --      | 1.512875e+01 |    Inf | unknown
r 0.1s|     1 |     0 |   890 |     - |simplero|   0 | 679 |  77 |  77 |   0 |  0 |   0 |   0 |      --      | 1.290497e+01 |    Inf | unknown
r 0.1s|     1 |     0 |   936 |     - |simplero|   0 | 690 |  77 |  77 |   0 |  0 |   0 |   0 |      --      | 1.084693e+01 |    Inf | unknown
r 0.1s|     1 |     0 |  1004 |     - |simplero|   0 | 701 |  77 |  77 |   0 |  0 |   0 |   0 |      --      | 8.950911e+00 |    Inf | unknown
r 0.1s|     1 |     0 |  1061 |     - |simplero|   0 | 712 |  77 |  77 |   0 |  0 |   0 |   0 |      --      | 6.795234e+00 |    Inf | unknown
r 0.1s|     1 |     0 |  1107 |     - |simplero|   0 | 723 |  77 |  77 |   0 |  0 |   0 |   0 |      --      | 5.192331e+00 |    Inf | unknown
r 0.1s|     1 |     0 |  1132 |     - |simplero|   0 | 734 |  77 |  77 |   0 |  0 |   0 |   0 |      --      | 4.339447e+00 |    Inf | unknown
r 0.1s|     1 |     0 |  1144 |     - |simplero|   0 | 734 |  77 |  77 |   0 |  0 |   0 |   0 |      --      | 4.240883e+00 |    Inf | unknown
r 0.1s|     1 |     0 |  1198 |     - |simplero|   0 | 745 |  77 |  77 |   0 |  0 |   0 |   0 |      --      | 3.281359e+00 |    Inf | unknown
r 0.1s|     1 |     0 |  1210 |     - |simplero|   0 | 745 |  77 |  77 |   0 |  0 |   0 |   0 |      --      | 3.110213e+00 |    Inf | unknown
r 0.1s|     1 |     0 |  1252 |     - |simplero|   0 | 756 |  77 |  77 |   0 |  0 |   0 |   0 |      --      | 1.772518e+00 |    Inf | unknown
r 0.1s|     1 |     0 |  1255 |     - |simplero|   0 | 756 |  77 |  77 |   0 |  0 |   0 |   0 |      --      | 1.771297e+00 |    Inf | unknown
r 0.1s|     1 |     0 |  1285 |     - |simplero|   0 | 767 |  77 |  77 |   0 |  0 |   0 |   0 |      --      | 1.169545e+00 |    Inf | unknown
r 0.1s|     1 |     0 |  1302 |     - |simplero|   0 | 767 |  77 |  77 |   0 |  0 |   0 |   0 |      --      | 1.005544e+00 |    Inf | unknown
 time | node  | left  |LP iter|LP it/n|mem/heur|mdpt |vars |cons |rows |cuts |sepa|confs|strbr|  dualbound   | primalbound  |  gap   | compl. 
r 0.1s|     1 |     0 |  1310 |     - |simplero|   0 | 767 |  77 |  77 |   0 |  0 |   0 |   0 |      --      | 9.676350e-01 |    Inf | unknown
r 0.1s|     1 |     0 |  1339 |     - |simplero|   0 | 778 |  77 |  77 |   0 |  0 |   0 |   0 |      --      | 4.765923e-01 |    Inf | unknown
r 0.1s|     1 |     0 |  1381 |     - |simplero|   0 | 789 |  77 |  77 |   0 |  0 |   0 |   0 |      --      | 1.380096e-01 |    Inf | unknown
r 0.1s|     1 |     0 |  1387 |     - |simplero|   0 | 789 |  77 |  77 |   0 |  0 |   0 |   0 |      --      | 1.265203e-01 |    Inf | unknown
r 0.1s|     1 |     0 |  1407 |     - |simplero|   0 | 800 |  77 |  77 |   0 |  0 |   0 |   0 |      --      | 0.000000e+00 |    Inf | unknown
  0.1s|     1 |     0 |  1407 |     - |  3633k |   0 | 800 |  77 |  77 |   0 |  0 |   0 |   0 | 0.000000e+00 | 0.000000e+00 |   0.00%| unknown
  0.1s|     1 |     0 |  1407 |     - |  3633k |   0 | 800 |  77 |  77 |   0 |  0 |   0 |   0 | 0.000000e+00 | 0.000000e+00 |   0.00%| unknown

SCIP Status        : problem is solved [optimal solution found]
Solving Time (sec) : 0.08
Solving Nodes      : 1
Primal Bound       : +0.00000000000000e+00 (19 solutions)
Dual Bound         : +0.00000000000000e+00
Gap                : 0.00 %

written transformed problem to file <results_rootrelaxation/bin012_050_018.srr.lp>
written transformed problem to file <results_rootrelaxation/bin012_050_018.srr.cip>

written solution information to file <results_rootrelaxation/bin012_050_018.srr.sol>



